Route #1: 83 21 42 53 57 36 124 104 64 82
Route #2: 74 88 139 105 41 39 144 110 14 66 145 89
Route #3: 34 107 120 78 30 61 101 62 32 67 35 150 92 99 86
Route #4: 102 87 47 23
Route #5: 129 49 113 123 136 109 1 40
Route #6: 95 130 146 143 11 71
Route #7: 117 45 8 90 33 63 37 73 142 54 44 135
Route #8: 65 131 111 149 141 29
Route #9: 147 15 5
Route #10: 9 60 28
Route #11: 7 84 69 58
Route #12: 79 24 80
Route #13: 16 68 138 93 121 55 112
Route #14: 13
Route #15: 128 77 48 98 50 85 76 114 18 97 118 151 43 56
Route #16: 2
Route #17: 6 115 75 38
Route #18: 26 52 103
Route #19: 17 134 94 108 46 133
Route #20: 27 106 125
Route #21: 152 12 116
Route #22: 25 140
Route #23: 20 72 81 127
Route #24: 148 4
Route #25: 10
Route #26: 19 51 122 59
Route #27: 3 132 96 22
Route #28: 126 31 119 91 70 100 137
cost: 27214
